NAME: instance_1846
TYPE: TSP
DIMENSION: 20
EDGE_WEIGHT_TYPE: EUC_2D
NODE_COORD_SECTION
0 80.27 74.36
1 69.73 25.22
2 0.92 71.02
3 41.02 95.07
4 50.99 82.56
5 96.47 77.29
6 24.51 27.30
7 69.54 43.78
8 68.48 4.62
9 23.33 74.67
10 74.25 59.32
11 57.59 17.20
12 53.94 78.02
13 80.53 17.04
14 16.09 44.22
15 32.30 64.59
16 26.43 48.99
17 10.67 40.15
18 86.16 53.45
19 4.39 60.11
EOF
